
Gurobi 11.0.1 (win64) logging started Thu May 16 19:20:26 2024

Set parameter LogFile to value "output/solver_log11.txt"
Gurobi Optimizer version 11.0.1 build v11.0.1rc0 (win64 - Windows 11.0 (22631.2))

CPU model: 11th Gen Intel(R) Core(TM) i7-1165G7 @ 2.80GHz, instruction set [SSE2|AVX|AVX2|AVX512]
Thread count: 4 physical cores, 8 logical processors, using up to 8 threads

Optimize a model with 4206 rows, 1038 columns and 76258 nonzeros
Model fingerprint: 0x34b63826
Variable types: 568 continuous, 470 integer (470 binary)
Coefficient statistics:
  Matrix range     [4e-01, 1e+05]
  Objective range  [1e+00, 1e+02]
  Bounds range     [1e+00, 1e+00]
  RHS range        [1e-02, 1e+05]

User MIP start produced solution with objective 93152.5 (0.01s)
User MIP start produced solution with objective 93152.5 (0.01s)
Loaded user MIP start with objective 93152.5

Presolve removed 354 rows and 241 columns
Presolve time: 0.14s
Presolved: 3852 rows, 797 columns, 72313 nonzeros
Variable types: 526 continuous, 271 integer (270 binary)

Root relaxation: objective 9.358246e+04, 1095 iterations, 0.05 seconds (0.10 work units)

    Nodes    |    Current Node    |     Objective Bounds      |     Work
 Expl Unexpl |  Obj  Depth IntInf | Incumbent    BestBd   Gap | It/Node Time

     0     0 93582.4603    0    3 93152.4955 93582.4603  0.46%     -    0s
     0     0 93470.3704    0    2 93152.4955 93470.3704  0.34%     -    0s
H    0     0                    93352.439094 93470.3704  0.13%     -    0s

Cutting planes:
  MIR: 2

Explored 1 nodes (1568 simplex iterations) in 0.49 seconds (0.71 work units)
Thread count was 8 (of 8 available processors)

Solution count 3: 93352.4 93352.4 93152.5 

Optimal solution found (tolerance 1.00e-04)
Best objective 9.335243909356e+04, best bound 9.335243909356e+04, gap 0.0000%
